2010078
94,102,91,73,55,47,52,16,99,96,88,90,10,48,9,8,76,65,36,71,85,26,68,56,74,30,40,25,37,63,14,79,20,12,61,6,87,54,35,27,11,17,49,64,32,46,69,13,38,70,98,72,105,41,77,107,18,59,7,39,67,75,86,95,92,104,101,103,57,53,21,108,89,23,22,66,78,3,42,2,19,24,31,45,106,28,93,51,81,44,34,100,4,97,0,33,82,62,50,83,15,1,58,80,43,84,5,29,60